row=8;
column=8;
Board=[|8,0,3,0,2,1,0,0|0,0,0,0,0,0,0,0|0,0,0,0,0,4,2,1|0,3,1,0,0,0,0,0|0,0,8,0,0,0,7,2|0,0,6,4,0,0,1,0|0,0,0,1,7,0,0,0|0,2,0,5,1,3,0,6|];
OE=[|0,1,1,0,0,1,1,0|0,1,0,0,1,0,1,1|1,0,1,0,1,0,0,1|1,1,1,1,0,0,0,0|1,0,0,1,0,1,1,0|0,1,0,0,0,1,1,1|1,0,0,1,1,0,0,1|0,0,1,1,1,1,0,0|];
